xi Comparison - xi=0.25

Parameters:
W = 60
K = 5
Duplications = {8.0: 5, 9.0: 5, 10.0: 10, 11.0: 5, 12.0: 10,
                13.0: 10, 14.0: 10, 15.0: 5, 16.0: 5, 17.0: 10,
                18.0: 10, 19.0: 10, 20.0: 10, 21.0: 10}
s = 5
r = 10
Starting Positions = 17.0, 18.0, 19.0, 20.0, 21.0

Gurobi Log Excerpt:
Academic license - for non-commercial use only - expires 2021-07-06
Using license file /Users/ellajohnsen/gurobi.lic
Changed value of parameter TimeLimit to 3600.0
   Prev: inf  Min: 0.0  Max: inf  Default: inf
Gurobi Optimizer version 9.1.1 build v9.1.1rc0 (mac64)
Thread count: 8 physical cores, 8 logical processors, using up to 8 threads
Optimize a model with 4993 rows, 4433 columns and 45765 nonzeros
Model fingerprint: 0xbb199c8b
Variable types: 117 continuous, 4316 integer (4316 binary)
Coefficient statistics:
  Matrix range     [1e+00, 1e+02]
  Objective range  [3e+02, 3e+07]
  Bounds range     [1e+00, 6e+01]
  RHS range        [1e+00, 6e+01]
Found heuristic solution: objective 1.190306e+09
Presolve removed 2762 rows and 2524 columns
Presolve time: 0.48s
Presolved: 2231 rows, 1909 columns, 13023 nonzeros
Variable types: 82 continuous, 1827 integer (1827 binary)

Root relaxation: objective 7.142095e+08, 547 iterations, 0.04 seconds

    Nodes    |    Current Node    |     Objective Bounds      |     Work
 Expl Unexpl |  Obj  Depth IntInf | Incumbent    BestBd   Gap | It/Node Time

     0     0 7.1421e+08    0  113 1.1903e+09 7.1421e+08  40.0%     -    0s
H    0     0                    1.190306e+09 7.1421e+08  40.0%     -    0s
H    0     0                    1.137411e+09 7.1421e+08  37.2%     -    0s
H    0     0                    1.137403e+09 7.1421e+08  37.2%     -    0s
H    0     0                    1.058059e+09 7.1421e+08  32.5%     -    0s
     0     0 7.1421e+08    0  147 1.0581e+09 7.1421e+08  32.5%     -    1s
     0     0 7.1421e+08    0  127 1.0581e+09 7.1421e+08  32.5%     -    1s
H    0     0                    1.058059e+09 7.1421e+08  32.5%     -    1s
     0     0 7.1421e+08    0  107 1.0581e+09 7.1421e+08  32.5%     -    1s
H    0     0                    1.058058e+09 7.1421e+08  32.5%     -    1s
     0     0 7.1421e+08    0   87 1.0581e+09 7.1421e+08  32.5%     -    1s
H    0     0                    1.031613e+09 7.1421e+08  30.8%     -    1s
     0     0 7.1421e+08    0  105 1.0316e+09 7.1421e+08  30.8%     -    2s
H    0     0                    1.005160e+09 7.1421e+08  28.9%     -    2s
     0     0 7.2738e+08    0  116 1.0052e+09 7.2738e+08  27.6%     -    2s
     0     0 7.2738e+08    0  116 1.0052e+09 7.2738e+08  27.6%     -    2s
     0     0 7.4438e+08    0  120 1.0052e+09 7.4438e+08  25.9%     -    2s
     0     0 7.4438e+08    0  116 1.0052e+09 7.4438e+08  25.9%     -    2s
H    0     0                    9.787137e+08 7.4438e+08  23.9%     -    2s
     0     0 7.4562e+08    0  119 9.7871e+08 7.4562e+08  23.8%     -    2s
     0     0 7.4562e+08    0  103 9.7871e+08 7.4562e+08  23.8%     -    2s
H    0     0                    9.787135e+08 7.4562e+08  23.8%     -    2s
     0     0 7.5058e+08    0  120 9.7871e+08 7.5058e+08  23.3%     -    2s
     0     0 7.5071e+08    0  136 9.7871e+08 7.5071e+08  23.3%     -    2s
     0     0 7.5071e+08    0  130 9.7871e+08 7.5071e+08  23.3%     -    2s
     0     0 7.6141e+08    0  119 9.7871e+08 7.6141e+08  22.2%     -    2s
     0     0 7.6141e+08    0   82 9.7871e+08 7.6141e+08  22.2%     -    3s
H    0     0                    9.522700e+08 7.6141e+08  20.0%     -    3s
     0     0 7.6822e+08    0  117 9.5227e+08 7.6822e+08  19.3%     -    3s
     0     0 7.6822e+08    0  113 9.5227e+08 7.6822e+08  19.3%     -    3s
     0     0 7.8007e+08    0  133 9.5227e+08 7.8007e+08  18.1%     -    3s
     0     0 7.8007e+08    0  109 9.5227e+08 7.8007e+08  18.1%     -    3s
     0     0 7.9356e+08    0  107 9.5227e+08 7.9356e+08  16.7%     -    3s
     0     0 7.9356e+08    0   92 9.5227e+08 7.9356e+08  16.7%     -    3s
     0     0 7.9356e+08    0   97 9.5227e+08 7.9356e+08  16.7%     -    4s
     0     0 7.9356e+08    0   86 9.5227e+08 7.9356e+08  16.7%     -    4s
H    0     0                    9.522636e+08 7.9356e+08  16.7%     -    4s
     0     0 7.9356e+08    0   95 9.5226e+08 7.9356e+08  16.7%     -    4s
     0     0 7.9356e+08    0   92 9.5226e+08 7.9356e+08  16.7%     -    4s
     0     0 7.9356e+08    0   86 9.5226e+08 7.9356e+08  16.7%     -    4s
     0     0 7.9356e+08    0   68 9.5226e+08 7.9356e+08  16.7%     -    4s
     0     0 7.9356e+08    0   59 9.5226e+08 7.9356e+08  16.7%     -    4s
     0     0 7.9356e+08    0  106 9.5226e+08 7.9356e+08  16.7%     -    5s
H    0     0                    9.522633e+08 7.9356e+08  16.7%     -    5s
     0     0 7.9356e+08    0   97 9.5226e+08 7.9356e+08  16.7%     -    5s
     0     0 7.9356e+08    0  106 9.5226e+08 7.9356e+08  16.7%     -    5s
H    0     0                    9.522617e+08 7.9356e+08  16.7%     -    5s
     0     0 7.9356e+08    0   74 9.5226e+08 7.9356e+08  16.7%     -    5s
     0     0 7.9356e+08    0  101 9.5226e+08 7.9356e+08  16.7%     -    5s
     0     0 7.9356e+08    0   96 9.5226e+08 7.9356e+08  16.7%     -    5s
     0     0 7.9356e+08    0   69 9.5226e+08 7.9356e+08  16.7%     -    6s
     0     0 7.9356e+08    0   69 9.5226e+08 7.9356e+08  16.7%     -    6s
     0     2 7.9356e+08    0   69 9.5226e+08 7.9356e+08  16.7%     -    6s
H   32    28                    9.522614e+08 7.9357e+08  16.7%  87.8    6s
H   34    28                    9.522597e+08 7.9357e+08  16.7%  83.1    6s
H   73    59                    9.522594e+08 7.9357e+08  16.7%  51.5    7s
H   73    59                    9.258129e+08 7.9357e+08  14.3%  51.5    7s
H  106    91                    9.258127e+08 7.9357e+08  14.3%  43.9    7s
   689   643 7.9442e+08   60   68 9.2581e+08 7.9357e+08  14.3%  33.3   10s
H 1860  1086                    9.258122e+08 7.9357e+08  14.3%  39.2   14s
H 1887  1050                    9.258113e+08 7.9357e+08  14.3%  39.6   14s
  1932  1065 7.9357e+08   27   81 9.2581e+08 7.9357e+08  14.3%  41.0   15s
H 1938  1013                    9.258099e+08 7.9357e+08  14.3%  41.2   15s
H 2128  1023                    9.258099e+08 7.9357e+08  14.3%  46.6   16s
  2935  1355 8.7483e+08   54   60 9.2581e+08 7.9357e+08  14.3%  45.3   20s
  4637  2472 8.2002e+08   44   56 9.2581e+08 8.2002e+08  11.4%  46.0   25s
 10902  5668 8.2003e+08   57   63 9.2581e+08 8.2002e+08  11.4%  37.5   30s
 17727  8084 8.4649e+08   46   34 9.2581e+08 8.2003e+08  11.4%  33.8   35s
 22007 10184 infeasible   49      9.2581e+08 8.2003e+08  11.4%  35.0   40s
 27708 13534 9.0281e+08   54   24 9.2581e+08 8.2003e+08  11.4%  37.3   45s
 30079 13558 8.7292e+08   42  131 9.2581e+08 8.2003e+08  11.4%  36.4   50s
 30118 13579 8.2003e+08   26   85 9.2581e+08 8.2003e+08  11.4%  36.7   55s
 30469 13723 infeasible   44      9.2581e+08 8.2003e+08  11.4%  36.9   60s
 31316 14055 8.4648e+08   47   48 9.2581e+08 8.2003e+08  11.4%  37.8   65s
 32420 14111 8.4647e+08   32   38 9.2581e+08 8.2003e+08  11.4%  38.9   72s
 33275 14253 8.9950e+08   56   44 9.2581e+08 8.2003e+08  11.4%  39.9   78s
 33660 14292 8.4648e+08   50   44 9.2581e+08 8.2003e+08  11.4%  40.3   81s
 35037 14536 8.7292e+08   41   41 9.2581e+08 8.2003e+08  11.4%  41.9   86s
H36573 14921                    8.993684e+08 8.2003e+08  8.82%  42.6   88s
 38871 14261 infeasible   68      8.9937e+08 8.2003e+08  8.82%  41.4   90s
H39936 13407                    8.993675e+08 8.2003e+08  8.82%  42.4   91s
 43603 14082 infeasible   43      8.9937e+08 8.2003e+08  8.82%  41.3   95s
 44856 13965 8.2003e+08   40   87 8.9937e+08 8.2003e+08  8.82%  42.5  100s
 44913 13992 8.4648e+08   39   98 8.9937e+08 8.2003e+08  8.82%  42.6  105s
 45185 14062 8.2004e+08   56   47 8.9937e+08 8.2003e+08  8.82%  42.9  111s
 45531 14167 infeasible   71      8.9937e+08 8.2003e+08  8.82%  43.3  115s
 46802 14592 8.7293e+08   48   48 8.9937e+08 8.2003e+08  8.82%  44.1  120s
 47987 14501 8.7294e+08   54   40 8.9937e+08 8.2003e+08  8.82%  46.0  126s
 49110 14406 8.7293e+08   83   22 8.9937e+08 8.2003e+08  8.82%  48.0  134s
 49369 14647 infeasible   84      8.9937e+08 8.2003e+08  8.82%  48.5  137s
 50236 14751 8.2242e+08   48   63 8.9937e+08 8.2003e+08  8.82%  49.4  140s
 52967 15130 infeasible  106      8.9937e+08 8.2003e+08  8.82%  49.5  146s
 53699 14888 infeasible   89      8.9937e+08 8.2003e+08  8.82%  50.2  151s
 54470 15126 8.2004e+08   72   43 8.9937e+08 8.2003e+08  8.82%  51.1  157s
 55760 15047 8.2004e+08   64   62 8.9937e+08 8.2003e+08  8.82%  52.2  162s
 56423 15072     cutoff   56      8.9937e+08 8.2003e+08  8.82%  53.0  165s
 61079 15780 8.2003e+08   54   87 8.9937e+08 8.2003e+08  8.82%  52.5  189s
 61087 15785 8.4649e+08   67  123 8.9937e+08 8.2003e+08  8.82%  52.5  190s
 61102 15795 8.4648e+08   87  117 8.9937e+08 8.2003e+08  8.82%  52.5  195s
 61116 15805 8.2341e+08   84   85 8.9937e+08 8.2003e+08  8.82%  52.4  200s
 61124 15810 8.7295e+08   84  158 8.9937e+08 8.2003e+08  8.82%  52.4  205s
 61138 15819 8.2003e+08   53  135 8.9937e+08 8.2003e+08  8.82%  52.4  210s
 61154 15830 8.4651e+08   55  139 8.9937e+08 8.2003e+08  8.82%  52.4  215s
 61164 15837 8.2004e+08   94  114 8.9937e+08 8.2003e+08  8.82%  52.4  220s
 61175 15844 8.4649e+08   78  153 8.9937e+08 8.2004e+08  8.82%  52.4  225s
 61186 15851 8.4648e+08   71  161 8.9937e+08 8.2004e+08  8.82%  52.4  230s
 61198 15859 8.4648e+08   69  138 8.9937e+08 8.2004e+08  8.82%  52.4  235s
 61212 15869 8.4649e+08   83  161 8.9937e+08 8.2004e+08  8.82%  52.4  240s
H61212 15073                    8.993675e+08 8.2004e+08  8.82%  52.4  240s
 61224 15081 8.7295e+08   84  167 8.9937e+08 8.2004e+08  8.82%  52.4  245s
 61238 15090 8.2004e+08   53  188 8.9937e+08 8.2004e+08  8.82%  52.3  250s
 61250 15098 8.7293e+08   78  189 8.9937e+08 8.2004e+08  8.82%  52.3  255s
 61260 15105 8.4649e+08   96  194 8.9937e+08 8.2004e+08  8.82%  52.3  260s
 61272 15113 8.7293e+08   78  166 8.9937e+08 8.2004e+08  8.82%  52.3  265s
 61282 15119 8.2004e+08   51  185 8.9937e+08 8.2004e+08  8.82%  52.3  270s
 61289 15128 8.2004e+08   50  167 8.9937e+08 8.2004e+08  8.82%  52.6  276s
H61316 14374                    8.993675e+08 8.2004e+08  8.82%  52.7  280s
 61486 14433 8.5204e+08   64   76 8.9937e+08 8.2004e+08  8.82%  53.0  285s
 62014 14527 8.4648e+08   59   61 8.9937e+08 8.2004e+08  8.82%  53.6  290s
 63517 14646 infeasible   85      8.9937e+08 8.2885e+08  7.84%  55.8  295s
 65911 14714 8.4874e+08   77   57 8.9937e+08 8.4648e+08  5.88%  58.4  301s
 68284 14683 8.7671e+08   64   67 8.9937e+08 8.4648e+08  5.88%  60.3  305s
 70852 14508 8.4813e+08   76   75 8.9937e+08 8.4648e+08  5.88%  62.5  311s
 73556 14058 8.7293e+08   76   37 8.9937e+08 8.4649e+08  5.88%  65.0  316s
 75744 13383 8.7293e+08   74   64 8.9937e+08 8.4649e+08  5.88%  66.9  322s
 76300 13323 8.8617e+08   66   56 8.9937e+08 8.4649e+08  5.88%  67.2  326s
 81060 11775 8.7411e+08   64   49 8.9937e+08 8.4673e+08  5.85%  70.8  331s
 83858 10860 infeasible   68      8.9937e+08 8.4819e+08  5.69%  72.7  335s
 88124  9610 8.8615e+08   69   49 8.9937e+08 8.5777e+08  4.63%  73.9  340s
 92077  8981 8.7292e+08   84   35 8.9937e+08 8.7292e+08  2.94%  74.8  346s
 95614  8297     cutoff   83      8.9937e+08 8.7292e+08  2.94%  75.6  350s
 99279  7529 infeasible   76      8.9937e+08 8.7292e+08  2.94%  76.2  355s
 103103  6324 8.8615e+08   74   46 8.9937e+08 8.7292e+08  2.94%  76.6  360s
 107246  6045     cutoff   78      8.9937e+08 8.7292e+08  2.94%  77.3  365s
 110935  6016 8.7293e+08   82   41 8.9937e+08 8.7292e+08  2.94%  77.8  370s
 115866  5655 8.7294e+08   73   58 8.9937e+08 8.7292e+08  2.94%  78.3  376s
 119599  5220 infeasible   72      8.9937e+08 8.7293e+08  2.94%  78.6  380s
 124328  4417     cutoff   68      8.9937e+08 8.7293e+08  2.94%  79.2  385s
 127940  3570 infeasible   77      8.9937e+08 8.7293e+08  2.94%  79.5  390s
 132724  2144 infeasible   90      8.9937e+08 8.7335e+08  2.89%  80.1  395s

Cutting planes:
  Gomory: 10
  Cover: 13
  Implied bound: 6
  Clique: 21
  MIR: 24
  StrongCG: 9
  Flow cover: 91
  GUB cover: 48
  Zero half: 32
  RLT: 4
  Relax-and-lift: 2

Explored 138536 nodes (10936539 simplex iterations) in 398.42 seconds
Thread count was 8 (of 8 available processors)

Solution count 10: 8.99367e+08 8.99368e+08 9.2581e+08 ... 9.5226e+08

Optimal solution found (tolerance 1.00e-04)
Best objective 8.993675209565e+08, best bound 8.993605946872e+08, gap 0.0008%
